c description: Random 3-CNF over 21 variables and 89 clauses
c generator: CNFgen (0.9.2)
c copyright: (C) 2012-2022 Massimo Lauria <massimo.lauria@uniroma1.it>
c url: https://massimolauria.net/cnfgen
c command line: cnfgen --output CNF_4.28/21_bit_89_570.cnf randkcnf 3 21 89
c
p cnf 21 89
3 -5 -15 0
-3 -4 20 0
-14 -15 -20 0
-1 7 -20 0
4 9 -13 0
4 13 -18 0
4 14 -15 0
-9 -15 21 0
10 15 -17 0
-8 18 -20 0
-2 16 -19 0
-1 -9 -21 0
-3 -5 -7 0
2 -6 -18 0
-2 9 14 0
-7 13 17 0
-2 -10 -12 0
2 -4 -7 0
-4 14 19 0
5 6 12 0
-7 -12 -20 0
1 12 -17 0
-5 -9 16 0
5 7 -10 0
1 -7 -12 0
-6 -8 -16 0
-4 12 18 0
-3 4 -21 0
-3 19 -20 0
-11 13 20 0
8 10 -13 0
-6 16 -20 0
-1 -8 -14 0
13 16 -20 0
-6 8 13 0
13 14 -16 0
-13 -14 19 0
-3 15 -16 0
10 -13 18 0
-6 13 18 0
16 19 -20 0
-15 -20 -21 0
5 -7 -18 0
6 -8 -16 0
11 -14 18 0
2 -7 -15 0
1 2 -5 0
7 -14 15 0
3 -16 -18 0
5 -7 11 0
-1 6 -7 0
-3 11 -15 0
3 -15 21 0
-9 17 -21 0
9 -16 17 0
14 -15 18 0
1 -3 -9 0
-2 -5 -6 0
6 -7 13 0
-11 17 -20 0
-4 14 -21 0
-12 -17 18 0
-1 -15 20 0
7 -13 -20 0
-1 -11 15 0
-10 14 -15 0
-8 9 16 0
10 -18 -21 0
-7 13 14 0
7 9 11 0
2 -12 -13 0
1 -17 20 0
-10 19 -21 0
3 -5 -7 0
4 -5 -12 0
5 8 16 0
4 -9 -12 0
-4 13 -20 0
-9 -12 20 0
-1 -11 -19 0
-12 -13 -19 0
2 6 -17 0
1 3 -10 0
7 -9 21 0
-5 -11 14 0
-9 -13 14 0
3 -17 20 0
-14 -15 19 0
-7 11 19 0
